%chk=CF3_002_002_178_90_B3LYP_T1_TD.chk
%mem=20GB
%nprocshared=16
# opt td=(triplets,nstates=10,root=1) B3LYP/6-31g(d,p) Geom=Checkpoint Guess=Read

job_CF3_002_002_178_90_B3LYP_T1_TD

0 1

